15257
0 0 0 0 1 1 0 1 1 1 1 1 0 1 0 0 0 0 1 0 1 1 1 0 0 1 0 1 0 0
21 18 27 7 5 8 13 18 21 13 20 27 18 21 5 8 20 18 7 5 22 27 27 25 5 22 20 8 25 9 4 13 11 9 4 21 27 21 25 11 11 13 10 7 4 22 20 8 5 13 22 13 8 7 13 21 27 18 25 25 22 13 8 7 9 4 13 20 10 4 8 27 10 18 4 10 7 8 7 7 11 13 10 10 4 21 27 27 11 5 4 13 8 9 4 20 21 18 25 13 13 4 20 9 4 22 20 9 5 5 10 20 8 5 13 22 8 8 7 5 27 20 8 5 7 22 27 5 5 5 10 20 9 7 7 10 27 27 7 25 4 21 18 10 4 22 27 8 25 11